c
c This is glucose 2.1 --  based on MiniSAT (Many thanks to MiniSAT team)
c
c WARNING: for repeatability, setting FPU to use double precision
c ========================================[ Problem Statistics ]===========================================
c |                                                                                                       |
c |  Number of variables:        201317                                                                   |
c |  Number of clauses:          447730                                                                   |
c |  Parse time:                   0.14 s                                                                 |
c |                                                                                                       |
c ========================================[ MAGIC CONSTANTS ]==============================================
c | Constants are supposed to work well together :-)                                                      |
c | however, if you find better choices, please let us known...                                           |
c |-------------------------------------------------------------------------------------------------------|
c |                                |                                |                                     |
c | - Restarts:                    | - Reduce Clause DB:            | - Minimize Asserting:               |
c |   * LBD Queue    :     50      |   * First     :   4000         |    * size <  30                     |
c |   * Trail  Queue :   5000      |   * Inc       :    300         |    * lbd  <   6                     |
c |   * K            :   0.80      |   * Special   :   1000         |                                     |
c |   * R            :   1.40      |   * Protected :  (lbd)< 30     |                                     |
c |                                |                                |                                     |
c ==================================[ Search Statistics (every  10000 conflicts) ]=========================
c |                                                                                                       |
c |          RESTARTS           |          ORIGINAL         |              LEARNT              | Progress |
c |       NB   Blocked  Avg Cfc |    Vars  Clauses Literals |   Red   Learnts    LBD2  Removed |          |
c =========================================================================================================
c |       52         0      192 |  107804   435722   979648 |     1     8009      316     1986 | 46.451 % |
c |       91         2      219 |  107796   435714   979624 |     3     6952      632    13018 | 46.455 % |
c |      139        11      215 |  107784   435702   979588 |     3    16905      901    13018 | 46.461 % |
c |      193        20      207 |  107780   435698   979576 |     4    17621     1194    22269 | 46.463 % |
c |      241        27      207 |  107764   435682   979528 |     5    15787     1490    33983 | 46.470 % |
c |      286        39      209 |  107610   435568   979186 |     5    24176     1881    33983 | 46.547 % |
c |      319        47      219 |  107598   435524   979054 |     6    20394     2089    46949 | 46.553 % |
c |      359        57      222 |  107448   435389   978649 |     6    26919     2314    46949 | 46.627 % |
c |      440        65      204 |  107432   435376   978610 |     7    23906     2455    59838 | 46.635 % |
c |      548        65      182 |  107396   435343   978511 |     7    33707     2604    59838 | 46.653 % |
c |      655        65      167 |  107384   435333   978481 |     8    26420     2761    77071 | 46.659 % |
c |      789        65      152 |  107372   435323   978451 |     8    36389     2870    77071 | 46.665 % |
c |      921        65      141 |  107372   435323   978451 |     9    25152     2937    98308 | 46.665 % |
c |     1060        65      132 |  107368   435320   978442 |     9    35142     3006    98308 | 46.667 % |
c last restart ## conflicts  :  75 203 
c =========================================================================================================
c restarts              : 1188 (125 conflicts in avg)
c blocked restarts      : 65 (multiple: 46) 
c last block at restart : 398
c nb ReduceDB           : 9
c nb removed Clauses    : 98308
c nb learnts DL2        : 3070
c nb learnts size 2     : 1395
c nb learnts size 1     : 58
c conflicts             : 149222         (1788 /sec)
c decisions             : 902901         (0.00 % random) (10819 /sec)
c propagations          : 420610617      (5040077 /sec)
c conflict literals     : 6595288        (18.96 % deleted)
c nb reduced Clauses    : 2333
c CPU time              : 83.4532 s
s SATISFIABLE
